\ENCODING=ISO-8859-1
\Problem name: kMIS

Maximize
 obj: x1 + x2 + x3 + x4 + x5 + x6 + x7 + x8 + x9 + x10 + x11 + x12 + x13 + x14
      + x15 + x16 + x17 + x18 + x19 + x20 + x21 + x22 + x23 + x24 + x25 + x26
      + x27 + x28 + x29 + x30 + x31 + x32 + x33 + x34 + x35 + x36 + x37 + x38
      + x39 + x40 + x41 + x42 + x43 + x44 + x45 + x46 + x47 + x48 + x49 + x50
Subject To
 c1:    x51 + x52 + x53 + x54 + x55 + x56 + x57 + x58 + x59 + x60 + x61 + x62
        + x63 + x64 + x65 + x66 + x67 + x68 + x69 + x70 + x71 + x72 + x73 + x74
        + x75 + x76 + x77 + x78 + x79 + x80 + x81 + x82 + x83 + x84 + x85 + x86
        + x87 + x88 + x89 + x90 + x91 + x92 + x93 + x94 + x95 + x96 + x97 + x98
        + x99 + x100  = 15
 c2:    x1 + x51 <= 1
 c3:    x3 + x51 <= 1
 c4:    x4 + x51 <= 1
 c5:    x5 + x51 <= 1
 c6:    x6 + x51 <= 1
 c7:    x8 + x51 <= 1
 c8:    x11 + x51 <= 1
 c9:    x12 + x51 <= 1
 c10:   x17 + x51 <= 1
 c11:   x18 + x51 <= 1
 c12:   x19 + x51 <= 1
 c13:   x22 + x51 <= 1
 c14:   x23 + x51 <= 1
 c15:   x26 + x51 <= 1
 c16:   x28 + x51 <= 1
 c17:   x29 + x51 <= 1
 c18:   x30 + x51 <= 1
 c19:   x31 + x51 <= 1
 c20:   x34 + x51 <= 1
 c21:   x36 + x51 <= 1
 c22:   x37 + x51 <= 1
 c23:   x40 + x51 <= 1
 c24:   x41 + x51 <= 1
 c25:   x43 + x51 <= 1
 c26:   x44 + x51 <= 1
 c27:   x45 + x51 <= 1
 c28:   x46 + x51 <= 1
 c29:   x48 + x51 <= 1
 c30:   x1 + x52 <= 1
 c31:   x4 + x52 <= 1
 c32:   x5 + x52 <= 1
 c33:   x7 + x52 <= 1
 c34:   x8 + x52 <= 1
 c35:   x10 + x52 <= 1
 c36:   x12 + x52 <= 1
 c37:   x13 + x52 <= 1
 c38:   x14 + x52 <= 1
 c39:   x23 + x52 <= 1
 c40:   x24 + x52 <= 1
 c41:   x27 + x52 <= 1
 c42:   x28 + x52 <= 1
 c43:   x29 + x52 <= 1
 c44:   x30 + x52 <= 1
 c45:   x31 + x52 <= 1
 c46:   x33 + x52 <= 1
 c47:   x34 + x52 <= 1
 c48:   x35 + x52 <= 1
 c49:   x36 + x52 <= 1
 c50:   x37 + x52 <= 1
 c51:   x38 + x52 <= 1
 c52:   x39 + x52 <= 1
 c53:   x41 + x52 <= 1
 c54:   x45 + x52 <= 1
 c55:   x47 + x52 <= 1
 c56:   x48 + x52 <= 1
 c57:   x1 + x53 <= 1
 c58:   x2 + x53 <= 1
 c59:   x9 + x53 <= 1
 c60:   x11 + x53 <= 1
 c61:   x12 + x53 <= 1
 c62:   x13 + x53 <= 1
 c63:   x14 + x53 <= 1
 c64:   x15 + x53 <= 1
 c65:   x16 + x53 <= 1
 c66:   x17 + x53 <= 1
 c67:   x19 + x53 <= 1
 c68:   x20 + x53 <= 1
 c69:   x21 + x53 <= 1
 c70:   x22 + x53 <= 1
 c71:   x23 + x53 <= 1
 c72:   x24 + x53 <= 1
 c73:   x26 + x53 <= 1
 c74:   x27 + x53 <= 1
 c75:   x29 + x53 <= 1
 c76:   x30 + x53 <= 1
 c77:   x32 + x53 <= 1
 c78:   x38 + x53 <= 1
 c79:   x39 + x53 <= 1
 c80:   x48 + x53 <= 1
 c81:   x50 + x53 <= 1
 c82:   x3 + x54 <= 1
 c83:   x5 + x54 <= 1
 c84:   x8 + x54 <= 1
 c85:   x9 + x54 <= 1
 c86:   x10 + x54 <= 1
 c87:   x12 + x54 <= 1
 c88:   x13 + x54 <= 1
 c89:   x14 + x54 <= 1
 c90:   x15 + x54 <= 1
 c91:   x19 + x54 <= 1
 c92:   x22 + x54 <= 1
 c93:   x24 + x54 <= 1
 c94:   x26 + x54 <= 1
 c95:   x28 + x54 <= 1
 c96:   x29 + x54 <= 1
 c97:   x31 + x54 <= 1
 c98:   x32 + x54 <= 1
 c99:   x33 + x54 <= 1
 c100:  x35 + x54 <= 1
 c101:  x36 + x54 <= 1
 c102:  x37 + x54 <= 1
 c103:  x39 + x54 <= 1
 c104:  x45 + x54 <= 1
 c105:  x50 + x54 <= 1
 c106:  x3 + x55 <= 1
 c107:  x4 + x55 <= 1
 c108:  x7 + x55 <= 1
 c109:  x10 + x55 <= 1
 c110:  x12 + x55 <= 1
 c111:  x15 + x55 <= 1
 c112:  x17 + x55 <= 1
 c113:  x21 + x55 <= 1
 c114:  x23 + x55 <= 1
 c115:  x26 + x55 <= 1
 c116:  x27 + x55 <= 1
 c117:  x31 + x55 <= 1
 c118:  x34 + x55 <= 1
 c119:  x35 + x55 <= 1
 c120:  x36 + x55 <= 1
 c121:  x37 + x55 <= 1
 c122:  x38 + x55 <= 1
 c123:  x39 + x55 <= 1
 c124:  x40 + x55 <= 1
 c125:  x42 + x55 <= 1
 c126:  x43 + x55 <= 1
 c127:  x44 + x55 <= 1
 c128:  x45 + x55 <= 1
 c129:  x46 + x55 <= 1
 c130:  x47 + x55 <= 1
 c131:  x48 + x55 <= 1
 c132:  x49 + x55 <= 1
 c133:  x50 + x55 <= 1
 c134:  x1 + x56 <= 1
 c135:  x2 + x56 <= 1
 c136:  x3 + x56 <= 1
 c137:  x4 + x56 <= 1
 c138:  x5 + x56 <= 1
 c139:  x6 + x56 <= 1
 c140:  x7 + x56 <= 1
 c141:  x8 + x56 <= 1
 c142:  x9 + x56 <= 1
 c143:  x13 + x56 <= 1
 c144:  x15 + x56 <= 1
 c145:  x16 + x56 <= 1
 c146:  x17 + x56 <= 1
 c147:  x18 + x56 <= 1
 c148:  x21 + x56 <= 1
 c149:  x22 + x56 <= 1
 c150:  x23 + x56 <= 1
 c151:  x26 + x56 <= 1
 c152:  x27 + x56 <= 1
 c153:  x31 + x56 <= 1
 c154:  x33 + x56 <= 1
 c155:  x35 + x56 <= 1
 c156:  x36 + x56 <= 1
 c157:  x37 + x56 <= 1
 c158:  x38 + x56 <= 1
 c159:  x39 + x56 <= 1
 c160:  x41 + x56 <= 1
 c161:  x43 + x56 <= 1
 c162:  x45 + x56 <= 1
 c163:  x46 + x56 <= 1
 c164:  x3 + x57 <= 1
 c165:  x5 + x57 <= 1
 c166:  x7 + x57 <= 1
 c167:  x8 + x57 <= 1
 c168:  x12 + x57 <= 1
 c169:  x13 + x57 <= 1
 c170:  x14 + x57 <= 1
 c171:  x15 + x57 <= 1
 c172:  x16 + x57 <= 1
 c173:  x17 + x57 <= 1
 c174:  x19 + x57 <= 1
 c175:  x24 + x57 <= 1
 c176:  x31 + x57 <= 1
 c177:  x33 + x57 <= 1
 c178:  x35 + x57 <= 1
 c179:  x37 + x57 <= 1
 c180:  x38 + x57 <= 1
 c181:  x41 + x57 <= 1
 c182:  x43 + x57 <= 1
 c183:  x44 + x57 <= 1
 c184:  x46 + x57 <= 1
 c185:  x47 + x57 <= 1
 c186:  x50 + x57 <= 1
 c187:  x3 + x58 <= 1
 c188:  x7 + x58 <= 1
 c189:  x10 + x58 <= 1
 c190:  x11 + x58 <= 1
 c191:  x15 + x58 <= 1
 c192:  x16 + x58 <= 1
 c193:  x18 + x58 <= 1
 c194:  x20 + x58 <= 1
 c195:  x21 + x58 <= 1
 c196:  x24 + x58 <= 1
 c197:  x35 + x58 <= 1
 c198:  x37 + x58 <= 1
 c199:  x39 + x58 <= 1
 c200:  x41 + x58 <= 1
 c201:  x42 + x58 <= 1
 c202:  x44 + x58 <= 1
 c203:  x45 + x58 <= 1
 c204:  x46 + x58 <= 1
 c205:  x47 + x58 <= 1
 c206:  x49 + x58 <= 1
 c207:  x1 + x59 <= 1
 c208:  x2 + x59 <= 1
 c209:  x3 + x59 <= 1
 c210:  x6 + x59 <= 1
 c211:  x8 + x59 <= 1
 c212:  x10 + x59 <= 1
 c213:  x12 + x59 <= 1
 c214:  x13 + x59 <= 1
 c215:  x14 + x59 <= 1
 c216:  x17 + x59 <= 1
 c217:  x23 + x59 <= 1
 c218:  x24 + x59 <= 1
 c219:  x27 + x59 <= 1
 c220:  x28 + x59 <= 1
 c221:  x29 + x59 <= 1
 c222:  x30 + x59 <= 1
 c223:  x32 + x59 <= 1
 c224:  x33 + x59 <= 1
 c225:  x36 + x59 <= 1
 c226:  x38 + x59 <= 1
 c227:  x39 + x59 <= 1
 c228:  x45 + x59 <= 1
 c229:  x47 + x59 <= 1
 c230:  x48 + x59 <= 1
 c231:  x3 + x60 <= 1
 c232:  x5 + x60 <= 1
 c233:  x6 + x60 <= 1
 c234:  x7 + x60 <= 1
 c235:  x11 + x60 <= 1
 c236:  x13 + x60 <= 1
 c237:  x16 + x60 <= 1
 c238:  x17 + x60 <= 1
 c239:  x21 + x60 <= 1
 c240:  x22 + x60 <= 1
 c241:  x23 + x60 <= 1
 c242:  x24 + x60 <= 1
 c243:  x26 + x60 <= 1
 c244:  x27 + x60 <= 1
 c245:  x28 + x60 <= 1
 c246:  x29 + x60 <= 1
 c247:  x32 + x60 <= 1
 c248:  x33 + x60 <= 1
 c249:  x34 + x60 <= 1
 c250:  x36 + x60 <= 1
 c251:  x37 + x60 <= 1
 c252:  x39 + x60 <= 1
 c253:  x40 + x60 <= 1
 c254:  x41 + x60 <= 1
 c255:  x43 + x60 <= 1
 c256:  x44 + x60 <= 1
 c257:  x47 + x60 <= 1
 c258:  x48 + x60 <= 1
 c259:  x49 + x60 <= 1
 c260:  x2 + x61 <= 1
 c261:  x3 + x61 <= 1
 c262:  x6 + x61 <= 1
 c263:  x10 + x61 <= 1
 c264:  x11 + x61 <= 1
 c265:  x17 + x61 <= 1
 c266:  x18 + x61 <= 1
 c267:  x19 + x61 <= 1
 c268:  x20 + x61 <= 1
 c269:  x21 + x61 <= 1
 c270:  x23 + x61 <= 1
 c271:  x24 + x61 <= 1
 c272:  x25 + x61 <= 1
 c273:  x26 + x61 <= 1
 c274:  x27 + x61 <= 1
 c275:  x28 + x61 <= 1
 c276:  x31 + x61 <= 1
 c277:  x32 + x61 <= 1
 c278:  x33 + x61 <= 1
 c279:  x34 + x61 <= 1
 c280:  x36 + x61 <= 1
 c281:  x38 + x61 <= 1
 c282:  x39 + x61 <= 1
 c283:  x40 + x61 <= 1
 c284:  x41 + x61 <= 1
 c285:  x43 + x61 <= 1
 c286:  x48 + x61 <= 1
 c287:  x1 + x62 <= 1
 c288:  x2 + x62 <= 1
 c289:  x6 + x62 <= 1
 c290:  x9 + x62 <= 1
 c291:  x10 + x62 <= 1
 c292:  x12 + x62 <= 1
 c293:  x14 + x62 <= 1
 c294:  x16 + x62 <= 1
 c295:  x17 + x62 <= 1
 c296:  x23 + x62 <= 1
 c297:  x24 + x62 <= 1
 c298:  x25 + x62 <= 1
 c299:  x26 + x62 <= 1
 c300:  x28 + x62 <= 1
 c301:  x33 + x62 <= 1
 c302:  x35 + x62 <= 1
 c303:  x37 + x62 <= 1
 c304:  x38 + x62 <= 1
 c305:  x41 + x62 <= 1
 c306:  x43 + x62 <= 1
 c307:  x47 + x62 <= 1
 c308:  x48 + x62 <= 1
 c309:  x49 + x62 <= 1
 c310:  x50 + x62 <= 1
 c311:  x1 + x63 <= 1
 c312:  x2 + x63 <= 1
 c313:  x3 + x63 <= 1
 c314:  x4 + x63 <= 1
 c315:  x5 + x63 <= 1
 c316:  x7 + x63 <= 1
 c317:  x9 + x63 <= 1
 c318:  x10 + x63 <= 1
 c319:  x12 + x63 <= 1
 c320:  x18 + x63 <= 1
 c321:  x20 + x63 <= 1
 c322:  x21 + x63 <= 1
 c323:  x22 + x63 <= 1
 c324:  x23 + x63 <= 1
 c325:  x24 + x63 <= 1
 c326:  x25 + x63 <= 1
 c327:  x28 + x63 <= 1
 c328:  x31 + x63 <= 1
 c329:  x34 + x63 <= 1
 c330:  x35 + x63 <= 1
 c331:  x37 + x63 <= 1
 c332:  x39 + x63 <= 1
 c333:  x40 + x63 <= 1
 c334:  x41 + x63 <= 1
 c335:  x44 + x63 <= 1
 c336:  x45 + x63 <= 1
 c337:  x46 + x63 <= 1
 c338:  x48 + x63 <= 1
 c339:  x50 + x63 <= 1
 c340:  x4 + x64 <= 1
 c341:  x5 + x64 <= 1
 c342:  x7 + x64 <= 1
 c343:  x9 + x64 <= 1
 c344:  x12 + x64 <= 1
 c345:  x13 + x64 <= 1
 c346:  x16 + x64 <= 1
 c347:  x18 + x64 <= 1
 c348:  x19 + x64 <= 1
 c349:  x22 + x64 <= 1
 c350:  x25 + x64 <= 1
 c351:  x26 + x64 <= 1
 c352:  x29 + x64 <= 1
 c353:  x30 + x64 <= 1
 c354:  x32 + x64 <= 1
 c355:  x33 + x64 <= 1
 c356:  x34 + x64 <= 1
 c357:  x35 + x64 <= 1
 c358:  x36 + x64 <= 1
 c359:  x38 + x64 <= 1
 c360:  x39 + x64 <= 1
 c361:  x40 + x64 <= 1
 c362:  x42 + x64 <= 1
 c363:  x47 + x64 <= 1
 c364:  x50 + x64 <= 1
 c365:  x1 + x65 <= 1
 c366:  x2 + x65 <= 1
 c367:  x4 + x65 <= 1
 c368:  x6 + x65 <= 1
 c369:  x7 + x65 <= 1
 c370:  x9 + x65 <= 1
 c371:  x11 + x65 <= 1
 c372:  x14 + x65 <= 1
 c373:  x16 + x65 <= 1
 c374:  x18 + x65 <= 1
 c375:  x21 + x65 <= 1
 c376:  x23 + x65 <= 1
 c377:  x28 + x65 <= 1
 c378:  x30 + x65 <= 1
 c379:  x35 + x65 <= 1
 c380:  x37 + x65 <= 1
 c381:  x38 + x65 <= 1
 c382:  x39 + x65 <= 1
 c383:  x41 + x65 <= 1
 c384:  x45 + x65 <= 1
 c385:  x47 + x65 <= 1
 c386:  x49 + x65 <= 1
 c387:  x1 + x66 <= 1
 c388:  x3 + x66 <= 1
 c389:  x4 + x66 <= 1
 c390:  x5 + x66 <= 1
 c391:  x6 + x66 <= 1
 c392:  x7 + x66 <= 1
 c393:  x10 + x66 <= 1
 c394:  x12 + x66 <= 1
 c395:  x13 + x66 <= 1
 c396:  x18 + x66 <= 1
 c397:  x19 + x66 <= 1
 c398:  x21 + x66 <= 1
 c399:  x22 + x66 <= 1
 c400:  x24 + x66 <= 1
 c401:  x25 + x66 <= 1
 c402:  x26 + x66 <= 1
 c403:  x27 + x66 <= 1
 c404:  x28 + x66 <= 1
 c405:  x30 + x66 <= 1
 c406:  x33 + x66 <= 1
 c407:  x35 + x66 <= 1
 c408:  x36 + x66 <= 1
 c409:  x37 + x66 <= 1
 c410:  x41 + x66 <= 1
 c411:  x46 + x66 <= 1
 c412:  x47 + x66 <= 1
 c413:  x48 + x66 <= 1
 c414:  x49 + x66 <= 1
 c415:  x50 + x66 <= 1
 c416:  x2 + x67 <= 1
 c417:  x5 + x67 <= 1
 c418:  x7 + x67 <= 1
 c419:  x9 + x67 <= 1
 c420:  x12 + x67 <= 1
 c421:  x13 + x67 <= 1
 c422:  x15 + x67 <= 1
 c423:  x17 + x67 <= 1
 c424:  x19 + x67 <= 1
 c425:  x21 + x67 <= 1
 c426:  x23 + x67 <= 1
 c427:  x24 + x67 <= 1
 c428:  x25 + x67 <= 1
 c429:  x26 + x67 <= 1
 c430:  x28 + x67 <= 1
 c431:  x29 + x67 <= 1
 c432:  x30 + x67 <= 1
 c433:  x31 + x67 <= 1
 c434:  x35 + x67 <= 1
 c435:  x39 + x67 <= 1
 c436:  x40 + x67 <= 1
 c437:  x48 + x67 <= 1
 c438:  x50 + x67 <= 1
 c439:  x1 + x68 <= 1
 c440:  x2 + x68 <= 1
 c441:  x4 + x68 <= 1
 c442:  x6 + x68 <= 1
 c443:  x7 + x68 <= 1
 c444:  x8 + x68 <= 1
 c445:  x9 + x68 <= 1
 c446:  x10 + x68 <= 1
 c447:  x11 + x68 <= 1
 c448:  x13 + x68 <= 1
 c449:  x15 + x68 <= 1
 c450:  x16 + x68 <= 1
 c451:  x18 + x68 <= 1
 c452:  x19 + x68 <= 1
 c453:  x21 + x68 <= 1
 c454:  x25 + x68 <= 1
 c455:  x26 + x68 <= 1
 c456:  x27 + x68 <= 1
 c457:  x29 + x68 <= 1
 c458:  x30 + x68 <= 1
 c459:  x31 + x68 <= 1
 c460:  x32 + x68 <= 1
 c461:  x34 + x68 <= 1
 c462:  x36 + x68 <= 1
 c463:  x37 + x68 <= 1
 c464:  x38 + x68 <= 1
 c465:  x40 + x68 <= 1
 c466:  x41 + x68 <= 1
 c467:  x42 + x68 <= 1
 c468:  x43 + x68 <= 1
 c469:  x46 + x68 <= 1
 c470:  x47 + x68 <= 1
 c471:  x48 + x68 <= 1
 c472:  x2 + x69 <= 1
 c473:  x3 + x69 <= 1
 c474:  x5 + x69 <= 1
 c475:  x6 + x69 <= 1
 c476:  x11 + x69 <= 1
 c477:  x13 + x69 <= 1
 c478:  x17 + x69 <= 1
 c479:  x21 + x69 <= 1
 c480:  x24 + x69 <= 1
 c481:  x30 + x69 <= 1
 c482:  x31 + x69 <= 1
 c483:  x32 + x69 <= 1
 c484:  x33 + x69 <= 1
 c485:  x35 + x69 <= 1
 c486:  x36 + x69 <= 1
 c487:  x39 + x69 <= 1
 c488:  x43 + x69 <= 1
 c489:  x44 + x69 <= 1
 c490:  x45 + x69 <= 1
 c491:  x47 + x69 <= 1
 c492:  x1 + x70 <= 1
 c493:  x2 + x70 <= 1
 c494:  x5 + x70 <= 1
 c495:  x7 + x70 <= 1
 c496:  x10 + x70 <= 1
 c497:  x11 + x70 <= 1
 c498:  x14 + x70 <= 1
 c499:  x15 + x70 <= 1
 c500:  x16 + x70 <= 1
 c501:  x18 + x70 <= 1
 c502:  x19 + x70 <= 1
 c503:  x22 + x70 <= 1
 c504:  x23 + x70 <= 1
 c505:  x27 + x70 <= 1
 c506:  x28 + x70 <= 1
 c507:  x30 + x70 <= 1
 c508:  x33 + x70 <= 1
 c509:  x34 + x70 <= 1
 c510:  x35 + x70 <= 1
 c511:  x37 + x70 <= 1
 c512:  x40 + x70 <= 1
 c513:  x42 + x70 <= 1
 c514:  x44 + x70 <= 1
 c515:  x45 + x70 <= 1
 c516:  x48 + x70 <= 1
 c517:  x49 + x70 <= 1
 c518:  x50 + x70 <= 1
 c519:  x2 + x71 <= 1
 c520:  x4 + x71 <= 1
 c521:  x5 + x71 <= 1
 c522:  x6 + x71 <= 1
 c523:  x7 + x71 <= 1
 c524:  x10 + x71 <= 1
 c525:  x12 + x71 <= 1
 c526:  x14 + x71 <= 1
 c527:  x16 + x71 <= 1
 c528:  x17 + x71 <= 1
 c529:  x19 + x71 <= 1
 c530:  x20 + x71 <= 1
 c531:  x21 + x71 <= 1
 c532:  x23 + x71 <= 1
 c533:  x24 + x71 <= 1
 c534:  x26 + x71 <= 1
 c535:  x28 + x71 <= 1
 c536:  x29 + x71 <= 1
 c537:  x30 + x71 <= 1
 c538:  x36 + x71 <= 1
 c539:  x38 + x71 <= 1
 c540:  x44 + x71 <= 1
 c541:  x50 + x71 <= 1
 c542:  x1 + x72 <= 1
 c543:  x2 + x72 <= 1
 c544:  x3 + x72 <= 1
 c545:  x5 + x72 <= 1
 c546:  x6 + x72 <= 1
 c547:  x8 + x72 <= 1
 c548:  x9 + x72 <= 1
 c549:  x12 + x72 <= 1
 c550:  x14 + x72 <= 1
 c551:  x19 + x72 <= 1
 c552:  x20 + x72 <= 1
 c553:  x22 + x72 <= 1
 c554:  x23 + x72 <= 1
 c555:  x25 + x72 <= 1
 c556:  x26 + x72 <= 1
 c557:  x28 + x72 <= 1
 c558:  x32 + x72 <= 1
 c559:  x36 + x72 <= 1
 c560:  x37 + x72 <= 1
 c561:  x38 + x72 <= 1
 c562:  x40 + x72 <= 1
 c563:  x41 + x72 <= 1
 c564:  x42 + x72 <= 1
 c565:  x43 + x72 <= 1
 c566:  x2 + x73 <= 1
 c567:  x4 + x73 <= 1
 c568:  x5 + x73 <= 1
 c569:  x9 + x73 <= 1
 c570:  x13 + x73 <= 1
 c571:  x14 + x73 <= 1
 c572:  x16 + x73 <= 1
 c573:  x17 + x73 <= 1
 c574:  x23 + x73 <= 1
 c575:  x24 + x73 <= 1
 c576:  x25 + x73 <= 1
 c577:  x26 + x73 <= 1
 c578:  x30 + x73 <= 1
 c579:  x31 + x73 <= 1
 c580:  x35 + x73 <= 1
 c581:  x37 + x73 <= 1
 c582:  x38 + x73 <= 1
 c583:  x39 + x73 <= 1
 c584:  x40 + x73 <= 1
 c585:  x41 + x73 <= 1
 c586:  x42 + x73 <= 1
 c587:  x43 + x73 <= 1
 c588:  x46 + x73 <= 1
 c589:  x2 + x74 <= 1
 c590:  x3 + x74 <= 1
 c591:  x4 + x74 <= 1
 c592:  x5 + x74 <= 1
 c593:  x6 + x74 <= 1
 c594:  x7 + x74 <= 1
 c595:  x9 + x74 <= 1
 c596:  x11 + x74 <= 1
 c597:  x13 + x74 <= 1
 c598:  x17 + x74 <= 1
 c599:  x18 + x74 <= 1
 c600:  x21 + x74 <= 1
 c601:  x22 + x74 <= 1
 c602:  x23 + x74 <= 1
 c603:  x25 + x74 <= 1
 c604:  x27 + x74 <= 1
 c605:  x28 + x74 <= 1
 c606:  x30 + x74 <= 1
 c607:  x32 + x74 <= 1
 c608:  x35 + x74 <= 1
 c609:  x37 + x74 <= 1
 c610:  x38 + x74 <= 1
 c611:  x39 + x74 <= 1
 c612:  x40 + x74 <= 1
 c613:  x42 + x74 <= 1
 c614:  x44 + x74 <= 1
 c615:  x45 + x74 <= 1
 c616:  x46 + x74 <= 1
 c617:  x47 + x74 <= 1
 c618:  x49 + x74 <= 1
 c619:  x50 + x74 <= 1
 c620:  x1 + x75 <= 1
 c621:  x2 + x75 <= 1
 c622:  x7 + x75 <= 1
 c623:  x9 + x75 <= 1
 c624:  x10 + x75 <= 1
 c625:  x12 + x75 <= 1
 c626:  x16 + x75 <= 1
 c627:  x17 + x75 <= 1
 c628:  x18 + x75 <= 1
 c629:  x22 + x75 <= 1
 c630:  x24 + x75 <= 1
 c631:  x26 + x75 <= 1
 c632:  x28 + x75 <= 1
 c633:  x32 + x75 <= 1
 c634:  x33 + x75 <= 1
 c635:  x36 + x75 <= 1
 c636:  x39 + x75 <= 1
 c637:  x40 + x75 <= 1
 c638:  x45 + x75 <= 1
 c639:  x47 + x75 <= 1
 c640:  x48 + x75 <= 1
 c641:  x3 + x76 <= 1
 c642:  x4 + x76 <= 1
 c643:  x5 + x76 <= 1
 c644:  x13 + x76 <= 1
 c645:  x14 + x76 <= 1
 c646:  x15 + x76 <= 1
 c647:  x19 + x76 <= 1
 c648:  x20 + x76 <= 1
 c649:  x21 + x76 <= 1
 c650:  x22 + x76 <= 1
 c651:  x23 + x76 <= 1
 c652:  x25 + x76 <= 1
 c653:  x26 + x76 <= 1
 c654:  x28 + x76 <= 1
 c655:  x31 + x76 <= 1
 c656:  x33 + x76 <= 1
 c657:  x36 + x76 <= 1
 c658:  x37 + x76 <= 1
 c659:  x38 + x76 <= 1
 c660:  x39 + x76 <= 1
 c661:  x40 + x76 <= 1
 c662:  x41 + x76 <= 1
 c663:  x43 + x76 <= 1
 c664:  x45 + x76 <= 1
 c665:  x47 + x76 <= 1
 c666:  x2 + x77 <= 1
 c667:  x5 + x77 <= 1
 c668:  x6 + x77 <= 1
 c669:  x7 + x77 <= 1
 c670:  x8 + x77 <= 1
 c671:  x11 + x77 <= 1
 c672:  x12 + x77 <= 1
 c673:  x13 + x77 <= 1
 c674:  x15 + x77 <= 1
 c675:  x16 + x77 <= 1
 c676:  x19 + x77 <= 1
 c677:  x20 + x77 <= 1
 c678:  x22 + x77 <= 1
 c679:  x23 + x77 <= 1
 c680:  x26 + x77 <= 1
 c681:  x27 + x77 <= 1
 c682:  x31 + x77 <= 1
 c683:  x33 + x77 <= 1
 c684:  x34 + x77 <= 1
 c685:  x38 + x77 <= 1
 c686:  x40 + x77 <= 1
 c687:  x43 + x77 <= 1
 c688:  x46 + x77 <= 1
 c689:  x47 + x77 <= 1
 c690:  x49 + x77 <= 1
 c691:  x50 + x77 <= 1
 c692:  x1 + x78 <= 1
 c693:  x2 + x78 <= 1
 c694:  x3 + x78 <= 1
 c695:  x4 + x78 <= 1
 c696:  x11 + x78 <= 1
 c697:  x12 + x78 <= 1
 c698:  x13 + x78 <= 1
 c699:  x15 + x78 <= 1
 c700:  x16 + x78 <= 1
 c701:  x18 + x78 <= 1
 c702:  x19 + x78 <= 1
 c703:  x21 + x78 <= 1
 c704:  x22 + x78 <= 1
 c705:  x24 + x78 <= 1
 c706:  x25 + x78 <= 1
 c707:  x28 + x78 <= 1
 c708:  x30 + x78 <= 1
 c709:  x32 + x78 <= 1
 c710:  x33 + x78 <= 1
 c711:  x34 + x78 <= 1
 c712:  x36 + x78 <= 1
 c713:  x37 + x78 <= 1
 c714:  x39 + x78 <= 1
 c715:  x41 + x78 <= 1
 c716:  x44 + x78 <= 1
 c717:  x45 + x78 <= 1
 c718:  x47 + x78 <= 1
 c719:  x48 + x78 <= 1
 c720:  x49 + x78 <= 1
 c721:  x3 + x79 <= 1
 c722:  x7 + x79 <= 1
 c723:  x9 + x79 <= 1
 c724:  x11 + x79 <= 1
 c725:  x16 + x79 <= 1
 c726:  x19 + x79 <= 1
 c727:  x20 + x79 <= 1
 c728:  x21 + x79 <= 1
 c729:  x23 + x79 <= 1
 c730:  x25 + x79 <= 1
 c731:  x26 + x79 <= 1
 c732:  x27 + x79 <= 1
 c733:  x29 + x79 <= 1
 c734:  x30 + x79 <= 1
 c735:  x31 + x79 <= 1
 c736:  x32 + x79 <= 1
 c737:  x33 + x79 <= 1
 c738:  x34 + x79 <= 1
 c739:  x36 + x79 <= 1
 c740:  x37 + x79 <= 1
 c741:  x38 + x79 <= 1
 c742:  x41 + x79 <= 1
 c743:  x44 + x79 <= 1
 c744:  x45 + x79 <= 1
 c745:  x47 + x79 <= 1
 c746:  x48 + x79 <= 1
 c747:  x2 + x80 <= 1
 c748:  x4 + x80 <= 1
 c749:  x6 + x80 <= 1
 c750:  x8 + x80 <= 1
 c751:  x9 + x80 <= 1
 c752:  x10 + x80 <= 1
 c753:  x11 + x80 <= 1
 c754:  x17 + x80 <= 1
 c755:  x19 + x80 <= 1
 c756:  x20 + x80 <= 1
 c757:  x22 + x80 <= 1
 c758:  x23 + x80 <= 1
 c759:  x25 + x80 <= 1
 c760:  x27 + x80 <= 1
 c761:  x28 + x80 <= 1
 c762:  x31 + x80 <= 1
 c763:  x33 + x80 <= 1
 c764:  x35 + x80 <= 1
 c765:  x36 + x80 <= 1
 c766:  x39 + x80 <= 1
 c767:  x40 + x80 <= 1
 c768:  x46 + x80 <= 1
 c769:  x48 + x80 <= 1
 c770:  x50 + x80 <= 1
 c771:  x2 + x81 <= 1
 c772:  x3 + x81 <= 1
 c773:  x7 + x81 <= 1
 c774:  x8 + x81 <= 1
 c775:  x9 + x81 <= 1
 c776:  x10 + x81 <= 1
 c777:  x11 + x81 <= 1
 c778:  x14 + x81 <= 1
 c779:  x15 + x81 <= 1
 c780:  x17 + x81 <= 1
 c781:  x22 + x81 <= 1
 c782:  x23 + x81 <= 1
 c783:  x24 + x81 <= 1
 c784:  x26 + x81 <= 1
 c785:  x29 + x81 <= 1
 c786:  x31 + x81 <= 1
 c787:  x33 + x81 <= 1
 c788:  x35 + x81 <= 1
 c789:  x36 + x81 <= 1
 c790:  x38 + x81 <= 1
 c791:  x39 + x81 <= 1
 c792:  x40 + x81 <= 1
 c793:  x45 + x81 <= 1
 c794:  x46 + x81 <= 1
 c795:  x1 + x82 <= 1
 c796:  x5 + x82 <= 1
 c797:  x6 + x82 <= 1
 c798:  x7 + x82 <= 1
 c799:  x9 + x82 <= 1
 c800:  x12 + x82 <= 1
 c801:  x14 + x82 <= 1
 c802:  x16 + x82 <= 1
 c803:  x22 + x82 <= 1
 c804:  x23 + x82 <= 1
 c805:  x24 + x82 <= 1
 c806:  x27 + x82 <= 1
 c807:  x28 + x82 <= 1
 c808:  x32 + x82 <= 1
 c809:  x33 + x82 <= 1
 c810:  x36 + x82 <= 1
 c811:  x37 + x82 <= 1
 c812:  x39 + x82 <= 1
 c813:  x42 + x82 <= 1
 c814:  x43 + x82 <= 1
 c815:  x44 + x82 <= 1
 c816:  x49 + x82 <= 1
 c817:  x50 + x82 <= 1
 c818:  x3 + x83 <= 1
 c819:  x4 + x83 <= 1
 c820:  x7 + x83 <= 1
 c821:  x9 + x83 <= 1
 c822:  x10 + x83 <= 1
 c823:  x11 + x83 <= 1
 c824:  x12 + x83 <= 1
 c825:  x14 + x83 <= 1
 c826:  x15 + x83 <= 1
 c827:  x16 + x83 <= 1
 c828:  x17 + x83 <= 1
 c829:  x19 + x83 <= 1
 c830:  x21 + x83 <= 1
 c831:  x25 + x83 <= 1
 c832:  x26 + x83 <= 1
 c833:  x28 + x83 <= 1
 c834:  x31 + x83 <= 1
 c835:  x38 + x83 <= 1
 c836:  x45 + x83 <= 1
 c837:  x46 + x83 <= 1
 c838:  x49 + x83 <= 1
 c839:  x1 + x84 <= 1
 c840:  x4 + x84 <= 1
 c841:  x5 + x84 <= 1
 c842:  x6 + x84 <= 1
 c843:  x7 + x84 <= 1
 c844:  x8 + x84 <= 1
 c845:  x9 + x84 <= 1
 c846:  x12 + x84 <= 1
 c847:  x16 + x84 <= 1
 c848:  x17 + x84 <= 1
 c849:  x18 + x84 <= 1
 c850:  x19 + x84 <= 1
 c851:  x22 + x84 <= 1
 c852:  x23 + x84 <= 1
 c853:  x26 + x84 <= 1
 c854:  x27 + x84 <= 1
 c855:  x31 + x84 <= 1
 c856:  x33 + x84 <= 1
 c857:  x35 + x84 <= 1
 c858:  x37 + x84 <= 1
 c859:  x38 + x84 <= 1
 c860:  x41 + x84 <= 1
 c861:  x42 + x84 <= 1
 c862:  x44 + x84 <= 1
 c863:  x46 + x84 <= 1
 c864:  x50 + x84 <= 1
 c865:  x1 + x85 <= 1
 c866:  x2 + x85 <= 1
 c867:  x7 + x85 <= 1
 c868:  x8 + x85 <= 1
 c869:  x10 + x85 <= 1
 c870:  x11 + x85 <= 1
 c871:  x12 + x85 <= 1
 c872:  x14 + x85 <= 1
 c873:  x15 + x85 <= 1
 c874:  x16 + x85 <= 1
 c875:  x17 + x85 <= 1
 c876:  x19 + x85 <= 1
 c877:  x22 + x85 <= 1
 c878:  x23 + x85 <= 1
 c879:  x24 + x85 <= 1
 c880:  x25 + x85 <= 1
 c881:  x27 + x85 <= 1
 c882:  x29 + x85 <= 1
 c883:  x30 + x85 <= 1
 c884:  x31 + x85 <= 1
 c885:  x32 + x85 <= 1
 c886:  x33 + x85 <= 1
 c887:  x35 + x85 <= 1
 c888:  x38 + x85 <= 1
 c889:  x40 + x85 <= 1
 c890:  x41 + x85 <= 1
 c891:  x44 + x85 <= 1
 c892:  x45 + x85 <= 1
 c893:  x47 + x85 <= 1
 c894:  x2 + x86 <= 1
 c895:  x3 + x86 <= 1
 c896:  x6 + x86 <= 1
 c897:  x7 + x86 <= 1
 c898:  x9 + x86 <= 1
 c899:  x10 + x86 <= 1
 c900:  x11 + x86 <= 1
 c901:  x14 + x86 <= 1
 c902:  x17 + x86 <= 1
 c903:  x18 + x86 <= 1
 c904:  x19 + x86 <= 1
 c905:  x20 + x86 <= 1
 c906:  x22 + x86 <= 1
 c907:  x27 + x86 <= 1
 c908:  x29 + x86 <= 1
 c909:  x30 + x86 <= 1
 c910:  x33 + x86 <= 1
 c911:  x35 + x86 <= 1
 c912:  x36 + x86 <= 1
 c913:  x37 + x86 <= 1
 c914:  x38 + x86 <= 1
 c915:  x39 + x86 <= 1
 c916:  x41 + x86 <= 1
 c917:  x42 + x86 <= 1
 c918:  x45 + x86 <= 1
 c919:  x48 + x86 <= 1
 c920:  x49 + x86 <= 1
 c921:  x2 + x87 <= 1
 c922:  x5 + x87 <= 1
 c923:  x6 + x87 <= 1
 c924:  x9 + x87 <= 1
 c925:  x10 + x87 <= 1
 c926:  x15 + x87 <= 1
 c927:  x17 + x87 <= 1
 c928:  x22 + x87 <= 1
 c929:  x23 + x87 <= 1
 c930:  x25 + x87 <= 1
 c931:  x26 + x87 <= 1
 c932:  x29 + x87 <= 1
 c933:  x34 + x87 <= 1
 c934:  x38 + x87 <= 1
 c935:  x39 + x87 <= 1
 c936:  x40 + x87 <= 1
 c937:  x42 + x87 <= 1
 c938:  x45 + x87 <= 1
 c939:  x46 + x87 <= 1
 c940:  x47 + x87 <= 1
 c941:  x48 + x87 <= 1
 c942:  x50 + x87 <= 1
 c943:  x2 + x88 <= 1
 c944:  x5 + x88 <= 1
 c945:  x6 + x88 <= 1
 c946:  x7 + x88 <= 1
 c947:  x8 + x88 <= 1
 c948:  x9 + x88 <= 1
 c949:  x10 + x88 <= 1
 c950:  x11 + x88 <= 1
 c951:  x14 + x88 <= 1
 c952:  x18 + x88 <= 1
 c953:  x20 + x88 <= 1
 c954:  x21 + x88 <= 1
 c955:  x23 + x88 <= 1
 c956:  x26 + x88 <= 1
 c957:  x30 + x88 <= 1
 c958:  x34 + x88 <= 1
 c959:  x35 + x88 <= 1
 c960:  x43 + x88 <= 1
 c961:  x44 + x88 <= 1
 c962:  x48 + x88 <= 1
 c963:  x49 + x88 <= 1
 c964:  x50 + x88 <= 1
 c965:  x1 + x89 <= 1
 c966:  x3 + x89 <= 1
 c967:  x4 + x89 <= 1
 c968:  x6 + x89 <= 1
 c969:  x8 + x89 <= 1
 c970:  x10 + x89 <= 1
 c971:  x11 + x89 <= 1
 c972:  x12 + x89 <= 1
 c973:  x13 + x89 <= 1
 c974:  x14 + x89 <= 1
 c975:  x15 + x89 <= 1
 c976:  x17 + x89 <= 1
 c977:  x18 + x89 <= 1
 c978:  x19 + x89 <= 1
 c979:  x21 + x89 <= 1
 c980:  x22 + x89 <= 1
 c981:  x23 + x89 <= 1
 c982:  x27 + x89 <= 1
 c983:  x28 + x89 <= 1
 c984:  x31 + x89 <= 1
 c985:  x35 + x89 <= 1
 c986:  x36 + x89 <= 1
 c987:  x37 + x89 <= 1
 c988:  x38 + x89 <= 1
 c989:  x40 + x89 <= 1
 c990:  x43 + x89 <= 1
 c991:  x44 + x89 <= 1
 c992:  x47 + x89 <= 1
 c993:  x48 + x89 <= 1
 c994:  x49 + x89 <= 1
 c995:  x1 + x90 <= 1
 c996:  x2 + x90 <= 1
 c997:  x3 + x90 <= 1
 c998:  x4 + x90 <= 1
 c999:  x6 + x90 <= 1
 c1000: x9 + x90 <= 1
 c1001: x11 + x90 <= 1
 c1002: x12 + x90 <= 1
 c1003: x15 + x90 <= 1
 c1004: x17 + x90 <= 1
 c1005: x19 + x90 <= 1
 c1006: x21 + x90 <= 1
 c1007: x26 + x90 <= 1
 c1008: x28 + x90 <= 1
 c1009: x29 + x90 <= 1
 c1010: x31 + x90 <= 1
 c1011: x35 + x90 <= 1
 c1012: x36 + x90 <= 1
 c1013: x38 + x90 <= 1
 c1014: x40 + x90 <= 1
 c1015: x43 + x90 <= 1
 c1016: x46 + x90 <= 1
 c1017: x48 + x90 <= 1
 c1018: x49 + x90 <= 1
 c1019: x4 + x91 <= 1
 c1020: x5 + x91 <= 1
 c1021: x6 + x91 <= 1
 c1022: x7 + x91 <= 1
 c1023: x8 + x91 <= 1
 c1024: x9 + x91 <= 1
 c1025: x10 + x91 <= 1
 c1026: x12 + x91 <= 1
 c1027: x14 + x91 <= 1
 c1028: x15 + x91 <= 1
 c1029: x17 + x91 <= 1
 c1030: x18 + x91 <= 1
 c1031: x20 + x91 <= 1
 c1032: x21 + x91 <= 1
 c1033: x26 + x91 <= 1
 c1034: x29 + x91 <= 1
 c1035: x30 + x91 <= 1
 c1036: x31 + x91 <= 1
 c1037: x32 + x91 <= 1
 c1038: x33 + x91 <= 1
 c1039: x34 + x91 <= 1
 c1040: x35 + x91 <= 1
 c1041: x36 + x91 <= 1
 c1042: x37 + x91 <= 1
 c1043: x38 + x91 <= 1
 c1044: x41 + x91 <= 1
 c1045: x42 + x91 <= 1
 c1046: x43 + x91 <= 1
 c1047: x48 + x91 <= 1
 c1048: x49 + x91 <= 1
 c1049: x4 + x92 <= 1
 c1050: x6 + x92 <= 1
 c1051: x8 + x92 <= 1
 c1052: x13 + x92 <= 1
 c1053: x15 + x92 <= 1
 c1054: x16 + x92 <= 1
 c1055: x19 + x92 <= 1
 c1056: x20 + x92 <= 1
 c1057: x21 + x92 <= 1
 c1058: x25 + x92 <= 1
 c1059: x26 + x92 <= 1
 c1060: x27 + x92 <= 1
 c1061: x29 + x92 <= 1
 c1062: x30 + x92 <= 1
 c1063: x33 + x92 <= 1
 c1064: x34 + x92 <= 1
 c1065: x35 + x92 <= 1
 c1066: x38 + x92 <= 1
 c1067: x39 + x92 <= 1
 c1068: x40 + x92 <= 1
 c1069: x41 + x92 <= 1
 c1070: x42 + x92 <= 1
 c1071: x44 + x92 <= 1
 c1072: x46 + x92 <= 1
 c1073: x48 + x92 <= 1
 c1074: x49 + x92 <= 1
 c1075: x1 + x93 <= 1
 c1076: x6 + x93 <= 1
 c1077: x9 + x93 <= 1
 c1078: x10 + x93 <= 1
 c1079: x15 + x93 <= 1
 c1080: x16 + x93 <= 1
 c1081: x18 + x93 <= 1
 c1082: x23 + x93 <= 1
 c1083: x25 + x93 <= 1
 c1084: x27 + x93 <= 1
 c1085: x28 + x93 <= 1
 c1086: x30 + x93 <= 1
 c1087: x31 + x93 <= 1
 c1088: x33 + x93 <= 1
 c1089: x35 + x93 <= 1
 c1090: x36 + x93 <= 1
 c1091: x38 + x93 <= 1
 c1092: x41 + x93 <= 1
 c1093: x42 + x93 <= 1
 c1094: x44 + x93 <= 1
 c1095: x48 + x93 <= 1
 c1096: x5 + x94 <= 1
 c1097: x6 + x94 <= 1
 c1098: x8 + x94 <= 1
 c1099: x9 + x94 <= 1
 c1100: x11 + x94 <= 1
 c1101: x13 + x94 <= 1
 c1102: x14 + x94 <= 1
 c1103: x15 + x94 <= 1
 c1104: x18 + x94 <= 1
 c1105: x19 + x94 <= 1
 c1106: x20 + x94 <= 1
 c1107: x21 + x94 <= 1
 c1108: x24 + x94 <= 1
 c1109: x26 + x94 <= 1
 c1110: x27 + x94 <= 1
 c1111: x29 + x94 <= 1
 c1112: x31 + x94 <= 1
 c1113: x35 + x94 <= 1
 c1114: x37 + x94 <= 1
 c1115: x40 + x94 <= 1
 c1116: x41 + x94 <= 1
 c1117: x42 + x94 <= 1
 c1118: x43 + x94 <= 1
 c1119: x45 + x94 <= 1
 c1120: x46 + x94 <= 1
 c1121: x48 + x94 <= 1
 c1122: x3 + x95 <= 1
 c1123: x4 + x95 <= 1
 c1124: x7 + x95 <= 1
 c1125: x8 + x95 <= 1
 c1126: x10 + x95 <= 1
 c1127: x12 + x95 <= 1
 c1128: x13 + x95 <= 1
 c1129: x15 + x95 <= 1
 c1130: x16 + x95 <= 1
 c1131: x18 + x95 <= 1
 c1132: x22 + x95 <= 1
 c1133: x24 + x95 <= 1
 c1134: x28 + x95 <= 1
 c1135: x29 + x95 <= 1
 c1136: x31 + x95 <= 1
 c1137: x33 + x95 <= 1
 c1138: x43 + x95 <= 1
 c1139: x44 + x95 <= 1
 c1140: x46 + x95 <= 1
 c1141: x48 + x95 <= 1
 c1142: x49 + x95 <= 1
 c1143: x50 + x95 <= 1
 c1144: x1 + x96 <= 1
 c1145: x5 + x96 <= 1
 c1146: x8 + x96 <= 1
 c1147: x11 + x96 <= 1
 c1148: x16 + x96 <= 1
 c1149: x17 + x96 <= 1
 c1150: x21 + x96 <= 1
 c1151: x24 + x96 <= 1
 c1152: x26 + x96 <= 1
 c1153: x27 + x96 <= 1
 c1154: x29 + x96 <= 1
 c1155: x30 + x96 <= 1
 c1156: x32 + x96 <= 1
 c1157: x37 + x96 <= 1
 c1158: x40 + x96 <= 1
 c1159: x42 + x96 <= 1
 c1160: x43 + x96 <= 1
 c1161: x45 + x96 <= 1
 c1162: x46 + x96 <= 1
 c1163: x47 + x96 <= 1
 c1164: x49 + x96 <= 1
 c1165: x50 + x96 <= 1
 c1166: x3 + x97 <= 1
 c1167: x12 + x97 <= 1
 c1168: x14 + x97 <= 1
 c1169: x15 + x97 <= 1
 c1170: x16 + x97 <= 1
 c1171: x18 + x97 <= 1
 c1172: x19 + x97 <= 1
 c1173: x20 + x97 <= 1
 c1174: x22 + x97 <= 1
 c1175: x23 + x97 <= 1
 c1176: x24 + x97 <= 1
 c1177: x27 + x97 <= 1
 c1178: x30 + x97 <= 1
 c1179: x32 + x97 <= 1
 c1180: x36 + x97 <= 1
 c1181: x37 + x97 <= 1
 c1182: x38 + x97 <= 1
 c1183: x39 + x97 <= 1
 c1184: x40 + x97 <= 1
 c1185: x43 + x97 <= 1
 c1186: x46 + x97 <= 1
 c1187: x49 + x97 <= 1
 c1188: x50 + x97 <= 1
 c1189: x1 + x98 <= 1
 c1190: x3 + x98 <= 1
 c1191: x4 + x98 <= 1
 c1192: x7 + x98 <= 1
 c1193: x9 + x98 <= 1
 c1194: x10 + x98 <= 1
 c1195: x13 + x98 <= 1
 c1196: x14 + x98 <= 1
 c1197: x15 + x98 <= 1
 c1198: x18 + x98 <= 1
 c1199: x19 + x98 <= 1
 c1200: x21 + x98 <= 1
 c1201: x23 + x98 <= 1
 c1202: x27 + x98 <= 1
 c1203: x28 + x98 <= 1
 c1204: x31 + x98 <= 1
 c1205: x32 + x98 <= 1
 c1206: x33 + x98 <= 1
 c1207: x34 + x98 <= 1
 c1208: x37 + x98 <= 1
 c1209: x43 + x98 <= 1
 c1210: x47 + x98 <= 1
 c1211: x49 + x98 <= 1
 c1212: x50 + x98 <= 1
 c1213: x5 + x99 <= 1
 c1214: x7 + x99 <= 1
 c1215: x8 + x99 <= 1
 c1216: x9 + x99 <= 1
 c1217: x10 + x99 <= 1
 c1218: x11 + x99 <= 1
 c1219: x14 + x99 <= 1
 c1220: x15 + x99 <= 1
 c1221: x16 + x99 <= 1
 c1222: x18 + x99 <= 1
 c1223: x20 + x99 <= 1
 c1224: x26 + x99 <= 1
 c1225: x28 + x99 <= 1
 c1226: x29 + x99 <= 1
 c1227: x33 + x99 <= 1
 c1228: x34 + x99 <= 1
 c1229: x35 + x99 <= 1
 c1230: x40 + x99 <= 1
 c1231: x43 + x99 <= 1
 c1232: x44 + x99 <= 1
 c1233: x45 + x99 <= 1
 c1234: x50 + x99 <= 1
 c1235: x1 + x100 <= 1
 c1236: x6 + x100 <= 1
 c1237: x7 + x100 <= 1
 c1238: x11 + x100 <= 1
 c1239: x13 + x100 <= 1
 c1240: x14 + x100 <= 1
 c1241: x15 + x100 <= 1
 c1242: x17 + x100 <= 1
 c1243: x20 + x100 <= 1
 c1244: x21 + x100 <= 1
 c1245: x23 + x100 <= 1
 c1246: x25 + x100 <= 1
 c1247: x28 + x100 <= 1
 c1248: x29 + x100 <= 1
 c1249: x30 + x100 <= 1
 c1250: x37 + x100 <= 1
 c1251: x38 + x100 <= 1
 c1252: x41 + x100 <= 1
 c1253: x44 + x100 <= 1
 c1254: x46 + x100 <= 1
 c1255: x48 + x100 <= 1
 c1256: x50 + x100 <= 1
Bounds
 0 <= x1 <= 1
 0 <= x2 <= 1
 0 <= x3 <= 1
 0 <= x4 <= 1
 0 <= x5 <= 1
 0 <= x6 <= 1
 0 <= x7 <= 1
 0 <= x8 <= 1
 0 <= x9 <= 1
 0 <= x10 <= 1
 0 <= x11 <= 1
 0 <= x12 <= 1
 0 <= x13 <= 1
 0 <= x14 <= 1
 0 <= x15 <= 1
 0 <= x16 <= 1
 0 <= x17 <= 1
 0 <= x18 <= 1
 0 <= x19 <= 1
 0 <= x20 <= 1
 0 <= x21 <= 1
 0 <= x22 <= 1
 0 <= x23 <= 1
 0 <= x24 <= 1
 0 <= x25 <= 1
 0 <= x26 <= 1
 0 <= x27 <= 1
 0 <= x28 <= 1
 0 <= x29 <= 1
 0 <= x30 <= 1
 0 <= x31 <= 1
 0 <= x32 <= 1
 0 <= x33 <= 1
 0 <= x34 <= 1
 0 <= x35 <= 1
 0 <= x36 <= 1
 0 <= x37 <= 1
 0 <= x38 <= 1
 0 <= x39 <= 1
 0 <= x40 <= 1
 0 <= x41 <= 1
 0 <= x42 <= 1
 0 <= x43 <= 1
 0 <= x44 <= 1
 0 <= x45 <= 1
 0 <= x46 <= 1
 0 <= x47 <= 1
 0 <= x48 <= 1
 0 <= x49 <= 1
 0 <= x50 <= 1
 0 <= x51 <= 1
 0 <= x52 <= 1
 0 <= x53 <= 1
 0 <= x54 <= 1
 0 <= x55 <= 1
 0 <= x56 <= 1
 0 <= x57 <= 1
 0 <= x58 <= 1
 0 <= x59 <= 1
 0 <= x60 <= 1
 0 <= x61 <= 1
 0 <= x62 <= 1
 0 <= x63 <= 1
 0 <= x64 <= 1
 0 <= x65 <= 1
 0 <= x66 <= 1
 0 <= x67 <= 1
 0 <= x68 <= 1
 0 <= x69 <= 1
 0 <= x70 <= 1
 0 <= x71 <= 1
 0 <= x72 <= 1
 0 <= x73 <= 1
 0 <= x74 <= 1
 0 <= x75 <= 1
 0 <= x76 <= 1
 0 <= x77 <= 1
 0 <= x78 <= 1
 0 <= x79 <= 1
 0 <= x80 <= 1
 0 <= x81 <= 1
 0 <= x82 <= 1
 0 <= x83 <= 1
 0 <= x84 <= 1
 0 <= x85 <= 1
 0 <= x86 <= 1
 0 <= x87 <= 1
 0 <= x88 <= 1
 0 <= x89 <= 1
 0 <= x90 <= 1
 0 <= x91 <= 1
 0 <= x92 <= 1
 0 <= x93 <= 1
 0 <= x94 <= 1
 0 <= x95 <= 1
 0 <= x96 <= 1
 0 <= x97 <= 1
 0 <= x98 <= 1
 0 <= x99 <= 1
 0 <= x100 <= 1
Binaries
 x1  x2  x3  x4  x5  x6  x7  x8  x9  x10  x11  x12  x13  x14  x15  x16  x17 
 x18  x19  x20  x21  x22  x23  x24  x25  x26  x27  x28  x29  x30  x31  x32 
 x33  x34  x35  x36  x37  x38  x39  x40  x41  x42  x43  x44  x45  x46  x47 
 x48  x49  x50  x51  x52  x53  x54  x55  x56  x57  x58  x59  x60  x61  x62 
 x63  x64  x65  x66  x67  x68  x69  x70  x71  x72  x73  x74  x75  x76  x77 
 x78  x79  x80  x81  x82  x83  x84  x85  x86  x87  x88  x89  x90  x91  x92 
 x93  x94  x95  x96  x97  x98  x99  x100 
End
